PatchBench/BenchmarksExist/qemu/CWE-190-Integer-Overflow-or-Wraparound/CVE_2014_0143_cab60de930684c33f67d4e32c7509b567f8c445b/cveSnippetExist32.smt2
; benchmark generated from python API
(set-info :status unknown)
(declare-fun rdi () (_ BitVec 64))
(assert
 (let (($x217 (or (and (not (bvsle (_ bv2147483648 64) rdi)) (= ((_ extract 63 28) rdi) (_ bv0 36))) (and (bvsle (_ bv2147483648 64) rdi) (not (= ((_ extract 63 28) rdi) (_ bv0 36)))))))
 (and $x217)))
(check-sat)
